\ This file has been generated by DOcplex
\ ENCODING=ISO-8859-1
\Problem name: AMC CVRP Docplex Model

Minimize
 obj: 2709 x_0_1 + 1746 x_0_2 + 3796 x_0_3 + 2709 x_1_0 + 4396 x_1_2
      + 6262 x_1_3 + 1746 x_2_0 + 4396 x_2_1 + 2124 x_2_3 + 3796 x_3_0
      + 6262 x_3_1 + 2124 x_3_2
Subject To
 c1: x_1_0 + x_1_2 + x_1_3 = 1
 c2: x_2_0 + x_2_1 + x_2_3 = 1
 c3: x_3_0 + x_3_1 + x_3_2 = 1
 c4: x_0_1 + x_2_1 + x_3_1 = 1
 c5: x_0_2 + x_1_2 + x_3_2 = 1
 c6: x_0_3 + x_1_3 + x_2_3 = 1
 c7: cum_u_1 + 1300 x_1_2 - cum_u_2 <= 1295
 c8: cum_u_1 + 1300 x_1_3 - cum_u_3 <= 1298
 c9: cum_u_2 + 1300 x_2_1 - cum_u_1 <= 1294
 c10: cum_u_2 + 1300 x_2_3 - cum_u_3 <= 1298
 c11: cum_u_3 + 1300 x_3_1 - cum_u_1 <= 1294
 c12: cum_u_3 + 1300 x_3_2 - cum_u_2 <= 1295
 c13: cum_u_1 >= 6
 c14: cum_u_2 >= 5
 c15: cum_u_3 >= 2

Bounds
 0 <= x_0_1 <= 1
 0 <= x_0_2 <= 1
 0 <= x_0_3 <= 1
 0 <= x_1_0 <= 1
 0 <= x_1_2 <= 1
 0 <= x_1_3 <= 1
 0 <= x_2_0 <= 1
 0 <= x_2_1 <= 1
 0 <= x_2_3 <= 1
 0 <= x_3_0 <= 1
 0 <= x_3_1 <= 1
 0 <= x_3_2 <= 1
       cum_u_1 <= 12
       cum_u_2 <= 12
       cum_u_3 <= 12

Binaries
 x_0_1 x_0_2 x_0_3 x_1_0 x_1_2 x_1_3 x_2_0 x_2_1 x_2_3 x_3_0 x_3_1 x_3_2

End
